(set-logic ALL)
(declare-const k Int)
(declare-fun s () (_ BitVec k))
(declare-fun t () (_ BitVec k))
(assert (distinct (bvudiv s (bvudiv (_ bv0 k) (bvor s (_ bv1 k)))) (bvnot (bvudiv (_ bv0 k) (bvand s (_ bv1 k))))))
(check-sat)
